1182.0 13324.0 3131.0 
1200.0 13269.0 2859.0 
1170.0 13383.0 3370.0 
1181.0 13772.0 3075.0 
1190.0 13193.0 3020.0 
1161.0 13306.0 3554.0 
1183.0 13582.0 3045.0 
1131.0 14038.0 3693.0 
1178.0 13414.0 3117.0 
1178.0 13350.0 3272.0 
1163.0 13367.0 3381.0 
1212.0 13098.0 2820.0 
1179.0 13206.0 3182.0 
1191.0 13168.0 2958.0 
1207.0 13162.0 2890.0 
1143.0 13480.0 3143.0 
1178.0 13388.0 3244.0 
1162.0 13365.0 3478.0 
1192.0 13317.0 2919.0 
1185.0 13182.0 3043.0 
1138.0 13542.0 3280.0 
1179.0 13363.0 3157.0 
1226.0 13347.0 2818.0 
1159.0 13390.0 3256.0 
1131.0 13843.0 3696.0 
1163.0 13826.0 3014.0 
1190.0 13193.0 3020.0 
1180.0 13627.0 3096.0 
1198.0 13155.0 2926.0 
